(set-logic QF_S)
(declare-fun var0 () Int)
(declare-fun var1 () String)
(declare-fun var2 () Int)
(declare-fun var3 () String)
(declare-fun var4 () Int)
(declare-fun var5 () Int)
(declare-fun var6 () String)
(declare-fun var7 () String)
(assert (< 36 var0))
(assert (< (str.len (str.at var1 var2)) (str.indexof (str.substr var3 var4 var5) (str.at var6 var5) (str.len var7))))
(assert (str.prefixof var7 var7))
(assert (str.in.re (str.replace var1 var1 "") (re.* re.allchar)))
(check-sat)